--- Job picnicpath.gms Start 10/16/23 18:10:44 44.3.0 8b8fb1cb WEX-WEI x86 64bit/MS Windows
--- Applying:
    C:\GAMS\44\gmsprmNT.txt
--- GAMS Parameters defined
    Input C:\Users\Rocke\OneDrive\Documents\isye524\lectures\randomex\picnicpath.gms
    PageSize 0
    ScrDir C:\Users\Rocke\OneDrive\Documents\isye524\lectures\randomex\225a\
    SysDir C:\GAMS\44\
    LogOption 3
    ErrMsg 1
    ErrorLog 99
    IDE 1
    LstTitleLeftAligned 1
Licensee: Introduction to Optimization (CS/ISyE/ECE 524) G230906|0002AS-GEN
          UW-Madison, CS Dept., Fall 2023, Prof. Ferris              DCE850
          C:\GAMS\44\gamslice.txt
          License Admin: Michael C. Ferris, ferris@cs.wisc.edu             
          Course license for use within the course and related course work
Processor information: 1 socket(s), 4 core(s), and 8 thread(s) available
GAMS 44.3.0   Copyright (C) 1987-2023 GAMS Development. All rights reserved
--- Starting compilation
--- picnicpath.gms(101) 3 Mb
--- $echo File C:\Users\Rocke\OneDrive\Documents\isye524\lectures\randomex\cplex.opt
--- picnicpath.gms(105) 3 Mb
--- Starting execution: elapsed 0:00:00.016
--- picnicpath.gms(45) 4 Mb
--- Generating LP model pflow
--- picnicpath.gms(67) 4 Mb
---   25 rows  17 columns  65 non-zeroes
--- Range statistics (absolute non-zero finite values)
--- RHS       [min, max] : [ 2.000E+00, 4.000E+00] - Zero values observed as well
--- Bound     [min, max] : [        NA,        NA] - Zero values observed as well
--- Matrix    [min, max] : [ 1.000E+00, 1.000E+00]
--- Executing CPLEX (Solvelink=2): elapsed 0:00:00.028

IBM ILOG CPLEX   44.3.0 8b8fb1cb Sep 1, 2023           WEI x86 64bit/MS Window

--- GAMS/CPLEX licensed for continuous and discrete problems.
--- GMO setup time: 0.00s
--- GMO memory 0.50 Mb (peak 0.50 Mb)
--- Dictionary memory 0.00 Mb
--- Cplex 22.1.1.0 link memory 0.00 Mb (peak 0.00 Mb)
--- Starting Cplex

Version identifier: 22.1.1.0 | 2022-11-27 | 9160aff4d
CPXPARAM_Advance                                 0
CPXPARAM_Simplex_Display                         2
CPXPARAM_Threads                                 1
CPXPARAM_MIP_Display                             4
CPXPARAM_MIP_Pool_Capacity                       0
CPXPARAM_MIP_Tolerances_AbsMIPGap                0
Tried aggregator 1 time.
LP Presolve eliminated 16 rows and 1 columns.
Reduced LP has 8 rows, 16 columns, and 32 nonzeros.
Presolve time = 0.00 sec. (0.02 ticks)
Symmetry aggregator did 19 additional substitutions.

Iteration      Dual Objective            In Variable           Out Variable
     1              16.000000        f(capulet,car4) linkb(s,capulet) slack
     2              16.000000        f(capulet,car3)    linkb(car3,t) slack
     3              14.000000 linkb(s,capulet) slack    linkb(car4,t) slack

Dual crossover.
  Dual:  Fixed no variables.
  Primal:  Fixing 12 variables.
       11 PMoves:  Infeasibility  0.00000000e+00  Objective  1.40000000e+01
        0 PMoves:  Infeasibility  0.00000000e+00  Objective  1.40000000e+01
  Primal:  Pushed 4, exchanged 8.

--- LP status (1): optimal.
--- Cplex Time: 0.00sec (det. 0.04 ticks)


Optimal solution found
Objective:           14.000000

--- Reading solution for model pflow
--- Executing after solve: elapsed 0:00:00.125
--- Generating LP model dualflow
--- picnicpath.gms(83) 4 Mb
---   17 rows  25 columns  73 non-zeroes
--- Range statistics (absolute non-zero finite values)
--- RHS       [min, max] : [ 1.000E+00, 1.000E+00] - Zero values observed as well
--- Bound     [min, max] : [        NA,        NA] - Zero values observed as well
--- Matrix    [min, max] : [ 1.000E+00, 4.000E+00]
--- Executing CPLEX (Solvelink=2): elapsed 0:00:00.134

IBM ILOG CPLEX   44.3.0 8b8fb1cb Sep 1, 2023           WEI x86 64bit/MS Window

--- GAMS/CPLEX licensed for continuous and discrete problems.
--- GMO setup time: 0.00s
--- GMO memory 0.50 Mb (peak 0.50 Mb)
--- Dictionary memory 0.00 Mb
--- Cplex 22.1.1.0 link memory 0.00 Mb (peak 0.00 Mb)
--- Starting Cplex

Version identifier: 22.1.1.0 | 2022-11-27 | 9160aff4d
CPXPARAM_Advance                                 0
CPXPARAM_Simplex_Display                         2
CPXPARAM_Threads                                 1
CPXPARAM_MIP_Display                             4
CPXPARAM_MIP_Pool_Capacity                       0
CPXPARAM_MIP_Tolerances_AbsMIPGap                0
Tried aggregator 1 time.
LP Presolve eliminated 0 rows and 1 columns.
Reduced LP has 16 rows, 24 columns, and 48 nonzeros.
Presolve time = 0.00 sec. (0.02 ticks)
Symmetry aggregator did 33 additional substitutions.

Iteration      Dual Objective            In Variable           Out Variable
     1               8.000000             pi(car4,t)dualcons(capulet, slack
     2              14.000000             pi(car3,t)dualcons(capulet, slack

Dual crossover.
  Dual:  Fixing 12 variables.
       11 DMoves:  Infeasibility  0.00000000e+00  Objective  1.40000000e+01
        0 DMoves:  Infeasibility  0.00000000e+00  Objective  1.40000000e+01
  Dual:  Pushed 5, exchanged 7.
  Primal:  Fixed no variables.

--- LP status (1): optimal.
--- Cplex Time: 0.00sec (det. 0.05 ticks)


Optimal solution found
Objective:           14.000000

--- Reading solution for model dualflow
*** Status: Normal completion
--- Job picnicpath.gms Stop 10/16/23 18:10:44 elapsed 0:00:00.228
